NAME : netgen22-5-7
COMMENT : Generated using the function generateClusteredNetwork from the R-package netgen (Bossek,2015) - Number of clusters: 5
TYPE : TSP
DIMENSION : 22
EDGE_WEIGHT_TYPE : EUC_2D
NODE_COORD_SECTION
1 54.210833672 56.3492392634
2 65.0984782782 49.1180837578
3 58.0152380888 48.7928556209
4 56.9381062005 55.5670842673
5 71.634488614 53.5341979036
6 62.0161038085 47.9723938095
7 11.734947538 15.0991407991
8 18.1995755476 23.0604103719
9 21.0679651574 19.0924807338
10 16.7520510724 21.2641317658
11 81.7774873969 88.3547217456
12 78.7586922662 96.9809680098
13 87.3755465719 91.4612012136
14 70.5829740967 91.8867511898
15 19.897401795 57.4992719366
16 15.2043023586 74.8214327712
17 18.8075049588 67.5907300352
18 21.0801453879 71.6666412982
19 89.9725972049 14.2867333002
20 87.2500447061 23.592573425
21 96.5769595109 27.3802155088
22 97.6771427311 31.4378145662
EOF
